% demand
num_movements = 24;
loading_factor = [900, 1600, 900, 1900, 1350, 2000, 1050, 1550, 1050, 1250, 1300, 950, 1300, 1650, 1450, 1350, 1250, 1000, 1100, 1050, 1000, 1600, 1650, 1600];
pickup_time = [0, 0, 1, 1, 1, 2, 2, 3, 3, 3, 3, 3, 4, 5, 5, 5, 5, 6, 6, 6, 7, 7, 7, 8];
delivery_time = [4, 2, 2, 2, 2, 3, 3, 4, 4, 4, 4, 4, 6, 6, 6, 6, 6, 7, 9, 9, 8, 9, 9, 9];

% transporter definition
total_capacity = 7000;
num_decks = 3;
capacity = [3000, 1000, 3000];

% ways out of decks
num_ways_out = 1;
paths_out = array3d(decks, ways_out, decks, [
% ways out of deck d1
2, 3, 0, 

% ways out of deck d2
3, 0, 0, 

% ways out of deck d3
0, 0, 0,	

]);

